Ordonnancement/plne/source/petit_instance/4job/4job_20.dat
data;
param nombreJob := 4;
param nombreRessource := 3;
param duree := 1 3 2 4 3 7 4 7;
param capaciteRessource := 1 8 2 16 3 15;
param besoinRessource : 1 2 3 :=
                    1   1 2 3
                    2   1 7 1
                    3   4 4 6
                    4   1 2 4;
end;

