Ordonnancement/plne/source/glpk_resultat/4job/4job_20.sol
Problem:    glpsolRcpsp
Rows:       228
Columns:    85 (84 integer, 84 binary)
Non-zeros:  1417
Status:     INTEGER OPTIMAL
Objective:  obj = 7 (MINimum)

   No.   Row name        Activity     Lower bound   Upper bound
------ ------------    ------------- ------------- -------------
     1 periode[1]                  3             3             = 
     2 periode[2]                  4             4             = 
     3 periode[3]                  7             7             = 
     4 periode[4]                  7             7             = 
     5 complet[1,1]                3                           3 
     6 complet[1,2]                3                           3 
     7 complet[1,3]               -1                           3 
     8 complet[1,4]                1                           3 
     9 complet[1,5]                0                           3 
    10 complet[1,6]                3                           3 
    11 complet[1,7]                0                           3 
    12 complet[1,8]                0                           3 
    13 complet[1,9]                0                           3 
    14 complet[1,10]
                                   0                           3 
    15 complet[1,11]
                                   0                           3 
    16 complet[1,12]
                                   0                           3 
    17 complet[1,13]
                                   0                           3 
    18 complet[1,14]
                                   0                           3 
    19 complet[1,15]
                                   0                           3 
    20 complet[1,16]
                                   0                           3 
    21 complet[1,17]
                                   0                           3 
    22 complet[1,18]
                                   0                           3 
    23 complet[1,19]
                                   0                           3 
    24 complet[2,1]                4                           4 
    25 complet[2,2]                4                           4 
    26 complet[2,3]               -1                           4 
    27 complet[2,4]                2                           4 
    28 complet[2,5]                1                           4 
    29 complet[2,6]                0                           4 
    30 complet[2,7]                4                           4 
    31 complet[2,8]                0                           4 
    32 complet[2,9]                0                           4 
    33 complet[2,10]
                                   0                           4 
    34 complet[2,11]
                                   0                           4 
    35 complet[2,12]
                                   0                           4 
    36 complet[2,13]
                                   0                           4 
    37 complet[2,14]
                                   0                           4 
    38 complet[2,15]
                                   0                           4 
    39 complet[2,16]
                                   0                           4 
    40 complet[2,17]
                                   0                           4 
    41 complet[2,18]
                                   0                           4 
    42 complet[2,19]
                                   0                           4 
    43 complet[3,1]                5                           7 
    44 complet[3,2]                4                           7 
    45 complet[3,3]                3                           7 
    46 complet[3,4]                2                           7 
    47 complet[3,5]                1                           7 
    48 complet[3,6]                0                           7 
    49 complet[3,7]                7                           7 
    50 complet[3,8]                0                           7 
    51 complet[3,9]                0                           7 
    52 complet[3,10]
                                   0                           7 
    53 complet[3,11]
                                   0                           7 
    54 complet[3,12]
                                   0                           7 
    55 complet[3,13]
                                   0                           7 
    56 complet[3,14]
                                   0                           7 
    57 complet[3,15]
                                   0                           7 
    58 complet[3,16]
                                   0                           7 
    59 complet[3,17]
                                   0                           7 
    60 complet[3,18]
                                   0                           7 
    61 complet[3,19]
                                   0                           7 
    62 complet[4,1]                5                           7 
    63 complet[4,2]                4                           7 
    64 complet[4,3]                3                           7 
    65 complet[4,4]                2                           7 
    66 complet[4,5]                1                           7 
    67 complet[4,6]                0                           7 
    68 complet[4,7]                7                           7 
    69 complet[4,8]                0                           7 
    70 complet[4,9]                0                           7 
    71 complet[4,10]
                                   0                           7 
    72 complet[4,11]
                                   0                           7 
    73 complet[4,12]
                                   0                           7 
    74 complet[4,13]
                                   0                           7 
    75 complet[4,14]
                                   0                           7 
    76 complet[4,15]
                                   0                           7 
    77 complet[4,16]
                                   0                           7 
    78 complet[4,17]
                                   0                           7 
    79 complet[4,18]
                                   0                           7 
    80 complet[4,19]
                                   0                           7 
    81 cmax[1,1]                   7            -0               
    82 cmax[1,2]                   7            -0               
    83 cmax[1,3]                   7            -0               
    84 cmax[1,4]                   3            -0               
    85 cmax[1,5]                   2            -0               
    86 cmax[1,6]                   1            -0               
    87 cmax[1,7]                   7            -0               
    88 cmax[1,8]                   7            -0               
    89 cmax[1,9]                   7            -0               
    90 cmax[1,10]                  7            -0               
    91 cmax[1,11]                  7            -0               
    92 cmax[1,12]                  7            -0               
    93 cmax[1,13]                  7            -0               
    94 cmax[1,14]                  7            -0               
    95 cmax[1,15]                  7            -0               
    96 cmax[1,16]                  7            -0               
    97 cmax[1,17]                  7            -0               
    98 cmax[1,18]                  7            -0               
    99 cmax[1,19]                  7            -0               
   100 cmax[1,20]                  7            -0               
   101 cmax[1,21]                  7            -0               
   102 cmax[2,1]                   7            -0               
   103 cmax[2,2]                   7            -0               
   104 cmax[2,3]                   7            -0               
   105 cmax[2,4]                   3            -0               
   106 cmax[2,5]                   2            -0               
   107 cmax[2,6]                   1            -0               
   108 cmax[2,7]                   0            -0               
   109 cmax[2,8]                   7            -0               
   110 cmax[2,9]                   7            -0               
   111 cmax[2,10]                  7            -0               
   112 cmax[2,11]                  7            -0               
   113 cmax[2,12]                  7            -0               
   114 cmax[2,13]                  7            -0               
   115 cmax[2,14]                  7            -0               
   116 cmax[2,15]                  7            -0               
   117 cmax[2,16]                  7            -0               
   118 cmax[2,17]                  7            -0               
   119 cmax[2,18]                  7            -0               
   120 cmax[2,19]                  7            -0               
   121 cmax[2,20]                  7            -0               
   122 cmax[2,21]                  7            -0               
   123 cmax[3,1]                   6            -0               
   124 cmax[3,2]                   5            -0               
   125 cmax[3,3]                   4            -0               
   126 cmax[3,4]                   3            -0               
   127 cmax[3,5]                   2            -0               
   128 cmax[3,6]                   1            -0               
   129 cmax[3,7]                   0            -0               
   130 cmax[3,8]                   7            -0               
   131 cmax[3,9]                   7            -0               
   132 cmax[3,10]                  7            -0               
   133 cmax[3,11]                  7            -0               
   134 cmax[3,12]                  7            -0               
   135 cmax[3,13]                  7            -0               
   136 cmax[3,14]                  7            -0               
   137 cmax[3,15]                  7            -0               
   138 cmax[3,16]                  7            -0               
   139 cmax[3,17]                  7            -0               
   140 cmax[3,18]                  7            -0               
   141 cmax[3,19]                  7            -0               
   142 cmax[3,20]                  7            -0               
   143 cmax[3,21]                  7            -0               
   144 cmax[4,1]                   6            -0               
   145 cmax[4,2]                   5            -0               
   146 cmax[4,3]                   4            -0               
   147 cmax[4,4]                   3            -0               
   148 cmax[4,5]                   2            -0               
   149 cmax[4,6]                   1            -0               
   150 cmax[4,7]                   0            -0               
   151 cmax[4,8]                   7            -0               
   152 cmax[4,9]                   7            -0               
   153 cmax[4,10]                  7            -0               
   154 cmax[4,11]                  7            -0               
   155 cmax[4,12]                  7            -0               
   156 cmax[4,13]                  7            -0               
   157 cmax[4,14]                  7            -0               
   158 cmax[4,15]                  7            -0               
   159 cmax[4,16]                  7            -0               
   160 cmax[4,17]                  7            -0               
   161 cmax[4,18]                  7            -0               
   162 cmax[4,19]                  7            -0               
   163 cmax[4,20]                  7            -0               
   164 cmax[4,21]                  7            -0               
   165 ressource[1,1]
                                   5                           8 
   166 ressource[1,2]
                                   5                           8 
   167 ressource[1,3]
                                   5                           8 
   168 ressource[1,4]
                                   7                           8 
   169 ressource[1,5]
                                   7                           8 
   170 ressource[1,6]
                                   7                           8 
   171 ressource[1,7]
                                   6                           8 
   172 ressource[1,8]
                                   0                           8 
   173 ressource[1,9]
                                   0                           8 
   174 ressource[1,10]
                                   0                           8 
   175 ressource[1,11]
                                   0                           8 
   176 ressource[1,12]
                                   0                           8 
   177 ressource[1,13]
                                   0                           8 
   178 ressource[1,14]
                                   0                           8 
   179 ressource[1,15]
                                   0                           8 
   180 ressource[1,16]
                                   0                           8 
   181 ressource[1,17]
                                   0                           8 
   182 ressource[1,18]
                                   0                           8 
   183 ressource[1,19]
                                   0                           8 
   184 ressource[1,20]
                                   0                           8 
   185 ressource[1,21]
                                   0                           8 
   186 ressource[2,1]
                                   6                          16 
   187 ressource[2,2]
                                   6                          16 
   188 ressource[2,3]
                                   6                          16 
   189 ressource[2,4]
                                  15                          16 
   190 ressource[2,5]
                                  15                          16 
   191 ressource[2,6]
                                  15                          16 
   192 ressource[2,7]
                                  13                          16 
   193 ressource[2,8]
                                   0                          16 
   194 ressource[2,9]
                                   0                          16 
   195 ressource[2,10]
                                   0                          16 
   196 ressource[2,11]
                                   0                          16 
   197 ressource[2,12]
                                   0                          16 
   198 ressource[2,13]
                                   0                          16 
   199 ressource[2,14]
                                   0                          16 
   200 ressource[2,15]
                                   0                          16 
   201 ressource[2,16]
                                   0                          16 
   202 ressource[2,17]
                                   0                          16 
   203 ressource[2,18]
                                   0                          16 
   204 ressource[2,19]
                                   0                          16 
   205 ressource[2,20]
                                   0                          16 
   206 ressource[2,21]
                                   0                          16 
   207 ressource[3,1]
                                  10                          15 
   208 ressource[3,2]
                                  10                          15 
   209 ressource[3,3]
                                  10                          15 
   210 ressource[3,4]
                                  14                          15 
   211 ressource[3,5]
                                  14                          15 
   212 ressource[3,6]
                                  14                          15 
   213 ressource[3,7]
                                  11                          15 
   214 ressource[3,8]
                                   0                          15 
   215 ressource[3,9]
                                   0                          15 
   216 ressource[3,10]
                                   0                          15 
   217 ressource[3,11]
                                   0                          15 
   218 ressource[3,12]
                                   0                          15 
   219 ressource[3,13]
                                   0                          15 
   220 ressource[3,14]
                                   0                          15 
   221 ressource[3,15]
                                   0                          15 
   222 ressource[3,16]
                                   0                          15 
   223 ressource[3,17]
                                   0                          15 
   224 ressource[3,18]
                                   0                          15 
   225 ressource[3,19]
                                   0                          15 
   226 ressource[3,20]
                                   0                          15 
   227 ressource[3,21]
                                   0                          15 
   228 obj                         7                             

   No. Column name       Activity     Lower bound   Upper bound
------ ------------    ------------- ------------- -------------
     1 x[1,1]       *              0             0             1 
     2 x[1,2]       *              0             0             1 
     3 x[1,3]       *              0             0             1 
     4 x[1,4]       *              1             0             1 
     5 x[1,5]       *              1             0             1 
     6 x[1,6]       *              1             0             1 
     7 x[1,7]       *              0             0             1 
     8 x[1,8]       *              0             0             1 
     9 x[1,9]       *              0             0             1 
    10 x[1,10]      *              0             0             1 
    11 x[1,11]      *              0             0             1 
    12 x[1,12]      *              0             0             1 
    13 x[1,13]      *              0             0             1 
    14 x[1,14]      *              0             0             1 
    15 x[1,15]      *              0             0             1 
    16 x[1,16]      *              0             0             1 
    17 x[1,17]      *              0             0             1 
    18 x[1,18]      *              0             0             1 
    19 x[1,19]      *              0             0             1 
    20 x[1,20]      *              0             0             1 
    21 x[1,21]      *              0             0             1 
    22 x[2,1]       *              0             0             1 
    23 x[2,2]       *              0             0             1 
    24 x[2,3]       *              0             0             1 
    25 x[2,4]       *              1             0             1 
    26 x[2,5]       *              1             0             1 
    27 x[2,6]       *              1             0             1 
    28 x[2,7]       *              1             0             1 
    29 x[2,8]       *              0             0             1 
    30 x[2,9]       *              0             0             1 
    31 x[2,10]      *              0             0             1 
    32 x[2,11]      *              0             0             1 
    33 x[2,12]      *              0             0             1 
    34 x[2,13]      *              0             0             1 
    35 x[2,14]      *              0             0             1 
    36 x[2,15]      *              0             0             1 
    37 x[2,16]      *              0             0             1 
    38 x[2,17]      *              0             0             1 
    39 x[2,18]      *              0             0             1 
    40 x[2,19]      *              0             0             1 
    41 x[2,20]      *              0             0             1 
    42 x[2,21]      *              0             0             1 
    43 x[3,1]       *              1             0             1 
    44 x[3,2]       *              1             0             1 
    45 x[3,3]       *              1             0             1 
    46 x[3,4]       *              1             0             1 
    47 x[3,5]       *              1             0             1 
    48 x[3,6]       *              1             0             1 
    49 x[3,7]       *              1             0             1 
    50 x[3,8]       *              0             0             1 
    51 x[3,9]       *              0             0             1 
    52 x[3,10]      *              0             0             1 
    53 x[3,11]      *              0             0             1 
    54 x[3,12]      *              0             0             1 
    55 x[3,13]      *              0             0             1 
    56 x[3,14]      *              0             0             1 
    57 x[3,15]      *              0             0             1 
    58 x[3,16]      *              0             0             1 
    59 x[3,17]      *              0             0             1 
    60 x[3,18]      *              0             0             1 
    61 x[3,19]      *              0             0             1 
    62 x[3,20]      *              0             0             1 
    63 x[3,21]      *              0             0             1 
    64 x[4,1]       *              1             0             1 
    65 x[4,2]       *              1             0             1 
    66 x[4,3]       *              1             0             1 
    67 x[4,4]       *              1             0             1 
    68 x[4,5]       *              1             0             1 
    69 x[4,6]       *              1             0             1 
    70 x[4,7]       *              1             0             1 
    71 x[4,8]       *              0             0             1 
    72 x[4,9]       *              0             0             1 
    73 x[4,10]      *              0             0             1 
    74 x[4,11]      *              0             0             1 
    75 x[4,12]      *              0             0             1 
    76 x[4,13]      *              0             0             1 
    77 x[4,14]      *              0             0             1 
    78 x[4,15]      *              0             0             1 
    79 x[4,16]      *              0             0             1 
    80 x[4,17]      *              0             0             1 
    81 x[4,18]      *              0             0             1 
    82 x[4,19]      *              0             0             1 
    83 x[4,20]      *              0             0             1 
    84 x[4,21]      *              0             0             1 
    85 z                           7                             

Integer feasibility conditions:

KKT.PE: max.abs.err = 0.00e+00 on row 0
        max.rel.err = 0.00e+00 on row 0
        High quality

KKT.PB: max.abs.err = 0.00e+00 on row 0
        max.rel.err = 0.00e+00 on row 0
        High quality

End of output
